p cnf 21 23
14 -20 0
-15 -19 0
-15 19 0
19 -9 -7 13 -5 0
-10 -12 -5 -16 -1 14 17 -20 -8 -18 19 -6 0
-18 -10 15 -7 11 16 8 -13 20 0
-6 -9 0
21 10 0
-14 -6 0
-11 -6 1 0
-8 9 0
19 5 17 -3 14 -7 20 -8 1 -13 16 -21 -9 0
19 10 -14 13 6 -1 -2 9 15 -16 11 -7 -3 0
19 21 0
2 -14 19 -1 -12 5 9 17 -8 21 -16 0
-17 20 -1 -6 9 0
-1 4 -11 0
-3 -13 9 -8 -14 -5 18 0
-6 -15 -5 0
-12 4 13 3 -15 6 1 -10 -9 -20 -8 -19 18 -11 -16 -14 2 0
11 -21 1 -12 3 13 16 -17 -14 -19 -2 15 18 -8 -20 5 -4 9 -6 10 7 0
-9 3 15 -17 -6 -21 12 20 0
3 -18 0
